100
    1    35    35
    2    44    44
    3    26    26
    4     6     6
    5    48    48
    6    16    16
    7    21    21
    8    42    42
    9    22    22
   10    49    49
   11    45    45
   12    37    37
   13    43    43
   14     7     7
   15    45    45
   16    15    15
   17     5     5
   18    46    46
   19     2     2
   20    22    22
   21     9     9
   22    41    41
   23     1     1
   24     9     9
   25    22    22
   26    17    17
   27    44    44
   28    48    48
   29    38    38
   30     7     7
   31    24    24
   32    44    44
   33    15    15
   34    34    34
   35    32    32
   36    16    16
   37    17    17
   38    44    44
   39    34    34
   40    43    43
   41    49    49
   42    33    33
   43    33    33
   44    31    31
   45    32    32
   46    28    28
   47    22    22
   48    50    50
   49    24    24
   50    17    17
   51    38    38
   52    24    24
   53     6     6
   54    20    20
   55    45    45
   56    19    19
   57    45    45
   58    44    44
   59    29    29
   60    46    46
   61    49    49
   62    47    47
   63    27    27
   64    16    16
   65    47    47
   66     8     8
   67    19    19
   68    39    39
   69    42    42
   70     7     7
   71     7     7
   72    19    19
   73    22    22
   74    37    37
   75    20    20
   76    31    31
   77    48    48
   78    26    26
   79    50    50
   80    37    37
   81    45    45
   82    22    22
   83    17    17
   84    13    13
   85    22    22
   86    31    31
   87    45    45
   88    43    43
   89    13    13
   90     8     8
   91    48    48
   92     3     3
   93    37    37
   94    14    14
   95    23    23
   96    36    36
   97    29    29
   98    24    24
   99    24    24
  100    39    39
480
